sat
(
(define-fun J () String "")
(define-fun T () String "")
(define-fun I () String "")
(define-fun K () String "")
(define-fun R () String "")
(define-fun V () String "aa")
(define-fun H () String "aaaaaaaa")
(define-fun L () String "")
(define-fun O () String "")
(define-fun M () String "")
(define-fun P () String "")
)
